&BANDS
  prefix = 'silicon'
  outdir = './tmp/'
  filband = 'Si_bands.dat'
/
